c File: flat200_3_0.col
c
c SOURCE: Joseph Culberson (joe@cs.ualberta.ca)
c DESCRIPTION: Quasi-random coloring problem
c              generated with flatness = 0
c                             probability = 0.036
c                             known coloring = 3
c                             random seed = 1010
c              Creation Date:  Wed Feb 24 10:39:35 1999
c Maximum degree = 8 Minimum degree = 1
c COLOR VERIFICATION: Using the permuted order
c under simple greedy yields the specified
c coloring number
c Color = 3 specified partitions = 3
c p edge 200 479
c cnf created by edge2cnf
p cnf 600 2237
-1 -2 0
-1 -3 0
-2 -3 0
1 2 3 0
-4 -5 0
-4 -6 0
-5 -6 0
4 5 6 0
-7 -8 0
-7 -9 0
-8 -9 0
7 8 9 0
-10 -11 0
-10 -12 0
-11 -12 0
10 11 12 0
-13 -14 0
-13 -15 0
-14 -15 0
13 14 15 0
-16 -17 0
-16 -18 0
-17 -18 0
16 17 18 0
-19 -20 0
-19 -21 0
-20 -21 0
19 20 21 0
-22 -23 0
-22 -24 0
-23 -24 0
22 23 24 0
-25 -26 0
-25 -27 0
-26 -27 0
25 26 27 0
-28 -29 0
-28 -30 0
-29 -30 0
28 29 30 0
-31 -32 0
-31 -33 0
-32 -33 0
31 32 33 0
-34 -35 0
-34 -36 0
-35 -36 0
34 35 36 0
-37 -38 0
-37 -39 0
-38 -39 0
37 38 39 0
-40 -41 0
-40 -42 0
-41 -42 0
40 41 42 0
-43 -44 0
-43 -45 0
-44 -45 0
43 44 45 0
-46 -47 0
-46 -48 0
-47 -48 0
46 47 48 0
-49 -50 0
-49 -51 0
-50 -51 0
49 50 51 0
-52 -53 0
-52 -54 0
-53 -54 0
52 53 54 0
-55 -56 0
-55 -57 0
-56 -57 0
55 56 57 0
-58 -59 0
-58 -60 0
-59 -60 0
58 59 60 0
-61 -62 0
-61 -63 0
-62 -63 0
61 62 63 0
-64 -65 0
-64 -66 0
-65 -66 0
64 65 66 0
-67 -68 0
-67 -69 0
-68 -69 0
67 68 69 0
-70 -71 0
-70 -72 0
-71 -72 0
70 71 72 0
-73 -74 0
-73 -75 0
-74 -75 0
73 74 75 0
-76 -77 0
-76 -78 0
-77 -78 0
76 77 78 0
-79 -80 0
-79 -81 0
-80 -81 0
79 80 81 0
-82 -83 0
-82 -84 0
-83 -84 0
82 83 84 0
-85 -86 0
-85 -87 0
-86 -87 0
85 86 87 0
-88 -89 0
-88 -90 0
-89 -90 0
88 89 90 0
-91 -92 0
-91 -93 0
-92 -93 0
91 92 93 0
-94 -95 0
-94 -96 0
-95 -96 0
94 95 96 0
-97 -98 0
-97 -99 0
-98 -99 0
97 98 99 0
-100 -101 0
-100 -102 0
-101 -102 0
100 101 102 0
-103 -104 0
-103 -105 0
-104 -105 0
103 104 105 0
-106 -107 0
-106 -108 0
-107 -108 0
106 107 108 0
-109 -110 0
-109 -111 0
-110 -111 0
109 110 111 0
-112 -113 0
-112 -114 0
-113 -114 0
112 113 114 0
-115 -116 0
-115 -117 0
-116 -117 0
115 116 117 0
-118 -119 0
-118 -120 0
-119 -120 0
118 119 120 0
-121 -122 0
-121 -123 0
-122 -123 0
121 122 123 0
-124 -125 0
-124 -126 0
-125 -126 0
124 125 126 0
-127 -128 0
-127 -129 0
-128 -129 0
127 128 129 0
-130 -131 0
-130 -132 0
-131 -132 0
130 131 132 0
-133 -134 0
-133 -135 0
-134 -135 0
133 134 135 0
-136 -137 0
-136 -138 0
-137 -138 0
136 137 138 0
-139 -140 0
-139 -141 0
-140 -141 0
139 140 141 0
-142 -143 0
-142 -144 0
-143 -144 0
142 143 144 0
-145 -146 0
-145 -147 0
-146 -147 0
145 146 147 0
-148 -149 0
-148 -150 0
-149 -150 0
148 149 150 0
-151 -152 0
-151 -153 0
-152 -153 0
151 152 153 0
-154 -155 0
-154 -156 0
-155 -156 0
154 155 156 0
-157 -158 0
-157 -159 0
-158 -159 0
157 158 159 0
-160 -161 0
-160 -162 0
-161 -162 0
160 161 162 0
-163 -164 0
-163 -165 0
-164 -165 0
163 164 165 0
-166 -167 0
-166 -168 0
-167 -168 0
166 167 168 0
-169 -170 0
-169 -171 0
-170 -171 0
169 170 171 0
-172 -173 0
-172 -174 0
-173 -174 0
172 173 174 0
-175 -176 0
-175 -177 0
-176 -177 0
175 176 177 0
-178 -179 0
-178 -180 0
-179 -180 0
178 179 180 0
-181 -182 0
-181 -183 0
-182 -183 0
181 182 183 0
-184 -185 0
-184 -186 0
-185 -186 0
184 185 186 0
-187 -188 0
-187 -189 0
-188 -189 0
187 188 189 0
-190 -191 0
-190 -192 0
-191 -192 0
190 191 192 0
-193 -194 0
-193 -195 0
-194 -195 0
193 194 195 0
-196 -197 0
-196 -198 0
-197 -198 0
196 197 198 0
-199 -200 0
-199 -201 0
-200 -201 0
199 200 201 0
-202 -203 0
-202 -204 0
-203 -204 0
202 203 204 0
-205 -206 0
-205 -207 0
-206 -207 0
205 206 207 0
-208 -209 0
-208 -210 0
-209 -210 0
208 209 210 0
-211 -212 0
-211 -213 0
-212 -213 0
211 212 213 0
-214 -215 0
-214 -216 0
-215 -216 0
214 215 216 0
-217 -218 0
-217 -219 0
-218 -219 0
217 218 219 0
-220 -221 0
-220 -222 0
-221 -222 0
220 221 222 0
-223 -224 0
-223 -225 0
-224 -225 0
223 224 225 0
-226 -227 0
-226 -228 0
-227 -228 0
226 227 228 0
-229 -230 0
-229 -231 0
-230 -231 0
229 230 231 0
-232 -233 0
-232 -234 0
-233 -234 0
232 233 234 0
-235 -236 0
-235 -237 0
-236 -237 0
235 236 237 0
-238 -239 0
-238 -240 0
-239 -240 0
238 239 240 0
-241 -242 0
-241 -243 0
-242 -243 0
241 242 243 0
-244 -245 0
-244 -246 0
-245 -246 0
244 245 246 0
-247 -248 0
-247 -249 0
-248 -249 0
247 248 249 0
-250 -251 0
-250 -252 0
-251 -252 0
250 251 252 0
-253 -254 0
-253 -255 0
-254 -255 0
253 254 255 0
-256 -257 0
-256 -258 0
-257 -258 0
256 257 258 0
-259 -260 0
-259 -261 0
-260 -261 0
259 260 261 0
-262 -263 0
-262 -264 0
-263 -264 0
262 263 264 0
-265 -266 0
-265 -267 0
-266 -267 0
265 266 267 0
-268 -269 0
-268 -270 0
-269 -270 0
268 269 270 0
-271 -272 0
-271 -273 0
-272 -273 0
271 272 273 0
-274 -275 0
-274 -276 0
-275 -276 0
274 275 276 0
-277 -278 0
-277 -279 0
-278 -279 0
277 278 279 0
-280 -281 0
-280 -282 0
-281 -282 0
280 281 282 0
-283 -284 0
-283 -285 0
-284 -285 0
283 284 285 0
-286 -287 0
-286 -288 0
-287 -288 0
286 287 288 0
-289 -290 0
-289 -291 0
-290 -291 0
289 290 291 0
-292 -293 0
-292 -294 0
-293 -294 0
292 293 294 0
-295 -296 0
-295 -297 0
-296 -297 0
295 296 297 0
-298 -299 0
-298 -300 0
-299 -300 0
298 299 300 0
-301 -302 0
-301 -303 0
-302 -303 0
301 302 303 0
-304 -305 0
-304 -306 0
-305 -306 0
304 305 306 0
-307 -308 0
-307 -309 0
-308 -309 0
307 308 309 0
-310 -311 0
-310 -312 0
-311 -312 0
310 311 312 0
-313 -314 0
-313 -315 0
-314 -315 0
313 314 315 0
-316 -317 0
-316 -318 0
-317 -318 0
316 317 318 0
-319 -320 0
-319 -321 0
-320 -321 0
319 320 321 0
-322 -323 0
-322 -324 0
-323 -324 0
322 323 324 0
-325 -326 0
-325 -327 0
-326 -327 0
325 326 327 0
-328 -329 0
-328 -330 0
-329 -330 0
328 329 330 0
-331 -332 0
-331 -333 0
-332 -333 0
331 332 333 0
-334 -335 0
-334 -336 0
-335 -336 0
334 335 336 0
-337 -338 0
-337 -339 0
-338 -339 0
337 338 339 0
-340 -341 0
-340 -342 0
-341 -342 0
340 341 342 0
-343 -344 0
-343 -345 0
-344 -345 0
343 344 345 0
-346 -347 0
-346 -348 0
-347 -348 0
346 347 348 0
-349 -350 0
-349 -351 0
-350 -351 0
349 350 351 0
-352 -353 0
-352 -354 0
-353 -354 0
352 353 354 0
-355 -356 0
-355 -357 0
-356 -357 0
355 356 357 0
-358 -359 0
-358 -360 0
-359 -360 0
358 359 360 0
-361 -362 0
-361 -363 0
-362 -363 0
361 362 363 0
-364 -365 0
-364 -366 0
-365 -366 0
364 365 366 0
-367 -368 0
-367 -369 0
-368 -369 0
367 368 369 0
-370 -371 0
-370 -372 0
-371 -372 0
370 371 372 0
-373 -374 0
-373 -375 0
-374 -375 0
373 374 375 0
-376 -377 0
-376 -378 0
-377 -378 0
376 377 378 0
-379 -380 0
-379 -381 0
-380 -381 0
379 380 381 0
-382 -383 0
-382 -384 0
-383 -384 0
382 383 384 0
-385 -386 0
-385 -387 0
-386 -387 0
385 386 387 0
-388 -389 0
-388 -390 0
-389 -390 0
388 389 390 0
-391 -392 0
-391 -393 0
-392 -393 0
391 392 393 0
-394 -395 0
-394 -396 0
-395 -396 0
394 395 396 0
-397 -398 0
-397 -399 0
-398 -399 0
397 398 399 0
-400 -401 0
-400 -402 0
-401 -402 0
400 401 402 0
-403 -404 0
-403 -405 0
-404 -405 0
403 404 405 0
-406 -407 0
-406 -408 0
-407 -408 0
406 407 408 0
-409 -410 0
-409 -411 0
-410 -411 0
409 410 411 0
-412 -413 0
-412 -414 0
-413 -414 0
412 413 414 0
-415 -416 0
-415 -417 0
-416 -417 0
415 416 417 0
-418 -419 0
-418 -420 0
-419 -420 0
418 419 420 0
-421 -422 0
-421 -423 0
-422 -423 0
421 422 423 0
-424 -425 0
-424 -426 0
-425 -426 0
424 425 426 0
-427 -428 0
-427 -429 0
-428 -429 0
427 428 429 0
-430 -431 0
-430 -432 0
-431 -432 0
430 431 432 0
-433 -434 0
-433 -435 0
-434 -435 0
433 434 435 0
-436 -437 0
-436 -438 0
-437 -438 0
436 437 438 0
-439 -440 0
-439 -441 0
-440 -441 0
439 440 441 0
-442 -443 0
-442 -444 0
-443 -444 0
442 443 444 0
-445 -446 0
-445 -447 0
-446 -447 0
445 446 447 0
-448 -449 0
-448 -450 0
-449 -450 0
448 449 450 0
-451 -452 0
-451 -453 0
-452 -453 0
451 452 453 0
-454 -455 0
-454 -456 0
-455 -456 0
454 455 456 0
-457 -458 0
-457 -459 0
-458 -459 0
457 458 459 0
-460 -461 0
-460 -462 0
-461 -462 0
460 461 462 0
-463 -464 0
-463 -465 0
-464 -465 0
463 464 465 0
-466 -467 0
-466 -468 0
-467 -468 0
466 467 468 0
-469 -470 0
-469 -471 0
-470 -471 0
469 470 471 0
-472 -473 0
-472 -474 0
-473 -474 0
472 473 474 0
-475 -476 0
-475 -477 0
-476 -477 0
475 476 477 0
-478 -479 0
-478 -480 0
-479 -480 0
478 479 480 0
-481 -482 0
-481 -483 0
-482 -483 0
481 482 483 0
-484 -485 0
-484 -486 0
-485 -486 0
484 485 486 0
-487 -488 0
-487 -489 0
-488 -489 0
487 488 489 0
-490 -491 0
-490 -492 0
-491 -492 0
490 491 492 0
-493 -494 0
-493 -495 0
-494 -495 0
493 494 495 0
-496 -497 0
-496 -498 0
-497 -498 0
496 497 498 0
-499 -500 0
-499 -501 0
-500 -501 0
499 500 501 0
-502 -503 0
-502 -504 0
-503 -504 0
502 503 504 0
-505 -506 0
-505 -507 0
-506 -507 0
505 506 507 0
-508 -509 0
-508 -510 0
-509 -510 0
508 509 510 0
-511 -512 0
-511 -513 0
-512 -513 0
511 512 513 0
-514 -515 0
-514 -516 0
-515 -516 0
514 515 516 0
-517 -518 0
-517 -519 0
-518 -519 0
517 518 519 0
-520 -521 0
-520 -522 0
-521 -522 0
520 521 522 0
-523 -524 0
-523 -525 0
-524 -525 0
523 524 525 0
-526 -527 0
-526 -528 0
-527 -528 0
526 527 528 0
-529 -530 0
-529 -531 0
-530 -531 0
529 530 531 0
-532 -533 0
-532 -534 0
-533 -534 0
532 533 534 0
-535 -536 0
-535 -537 0
-536 -537 0
535 536 537 0
-538 -539 0
-538 -540 0
-539 -540 0
538 539 540 0
-541 -542 0
-541 -543 0
-542 -543 0
541 542 543 0
-544 -545 0
-544 -546 0
-545 -546 0
544 545 546 0
-547 -548 0
-547 -549 0
-548 -549 0
547 548 549 0
-550 -551 0
-550 -552 0
-551 -552 0
550 551 552 0
-553 -554 0
-553 -555 0
-554 -555 0
553 554 555 0
-556 -557 0
-556 -558 0
-557 -558 0
556 557 558 0
-559 -560 0
-559 -561 0
-560 -561 0
559 560 561 0
-562 -563 0
-562 -564 0
-563 -564 0
562 563 564 0
-565 -566 0
-565 -567 0
-566 -567 0
565 566 567 0
-568 -569 0
-568 -570 0
-569 -570 0
568 569 570 0
-571 -572 0
-571 -573 0
-572 -573 0
571 572 573 0
-574 -575 0
-574 -576 0
-575 -576 0
574 575 576 0
-577 -578 0
-577 -579 0
-578 -579 0
577 578 579 0
-580 -581 0
-580 -582 0
-581 -582 0
580 581 582 0
-583 -584 0
-583 -585 0
-584 -585 0
583 584 585 0
-586 -587 0
-586 -588 0
-587 -588 0
586 587 588 0
-589 -590 0
-589 -591 0
-590 -591 0
589 590 591 0
-592 -593 0
-592 -594 0
-593 -594 0
592 593 594 0
-595 -596 0
-595 -597 0
-596 -597 0
595 596 597 0
-598 -599 0
-598 -600 0
-599 -600 0
598 599 600 0
-46 -1 0
-47 -2 0
-48 -3 0
-64 -1 0
-65 -2 0
-66 -3 0
-328 -1 0
-329 -2 0
-330 -3 0
-340 -1 0
-341 -2 0
-342 -3 0
-361 -1 0
-362 -2 0
-363 -3 0
-211 -4 0
-212 -5 0
-213 -6 0
-280 -4 0
-281 -5 0
-282 -6 0
-292 -4 0
-293 -5 0
-294 -6 0
-343 -4 0
-344 -5 0
-345 -6 0
-178 -7 0
-179 -8 0
-180 -9 0
-355 -7 0
-356 -8 0
-357 -9 0
-55 -10 0
-56 -11 0
-57 -12 0
-79 -10 0
-80 -11 0
-81 -12 0
-100 -10 0
-101 -11 0
-102 -12 0
-196 -10 0
-197 -11 0
-198 -12 0
-247 -10 0
-248 -11 0
-249 -12 0
-37 -13 0
-38 -14 0
-39 -15 0
-172 -13 0
-173 -14 0
-174 -15 0
-271 -13 0
-272 -14 0
-273 -15 0
-412 -13 0
-413 -14 0
-414 -15 0
-343 -16 0
-344 -17 0
-345 -18 0
-361 -16 0
-362 -17 0
-363 -18 0
-448 -16 0
-449 -17 0
-450 -18 0
-523 -16 0
-524 -17 0
-525 -18 0
-121 -19 0
-122 -20 0
-123 -21 0
-229 -19 0
-230 -20 0
-231 -21 0
-235 -19 0
-236 -20 0
-237 -21 0
-358 -19 0
-359 -20 0
-360 -21 0
-544 -19 0
-545 -20 0
-546 -21 0
-502 -22 0
-503 -23 0
-504 -24 0
-553 -22 0
-554 -23 0
-555 -24 0
-313 -25 0
-314 -26 0
-315 -27 0
-577 -25 0
-578 -26 0
-579 -27 0
-31 -28 0
-32 -29 0
-33 -30 0
-253 -28 0
-254 -29 0
-255 -30 0
-331 -28 0
-332 -29 0
-333 -30 0
-442 -28 0
-443 -29 0
-444 -30 0
-535 -28 0
-536 -29 0
-537 -30 0
-295 -31 0
-296 -32 0
-297 -33 0
-301 -31 0
-302 -32 0
-303 -33 0
-439 -31 0
-440 -32 0
-441 -33 0
-487 -31 0
-488 -32 0
-489 -33 0
-508 -31 0
-509 -32 0
-510 -33 0
-154 -34 0
-155 -35 0
-156 -36 0
-163 -34 0
-164 -35 0
-165 -36 0
-259 -34 0
-260 -35 0
-261 -36 0
-322 -34 0
-323 -35 0
-324 -36 0
-343 -34 0
-344 -35 0
-345 -36 0
-454 -34 0
-455 -35 0
-456 -36 0
-115 -37 0
-116 -38 0
-117 -39 0
-298 -37 0
-299 -38 0
-300 -39 0
-388 -37 0
-389 -38 0
-390 -39 0
-511 -37 0
-512 -38 0
-513 -39 0
-556 -37 0
-557 -38 0
-558 -39 0
-118 -40 0
-119 -41 0
-120 -42 0
-247 -40 0
-248 -41 0
-249 -42 0
-298 -40 0
-299 -41 0
-300 -42 0
-397 -40 0
-398 -41 0
-399 -42 0
-430 -40 0
-431 -41 0
-432 -42 0
-457 -40 0
-458 -41 0
-459 -42 0
-472 -40 0
-473 -41 0
-474 -42 0
-433 -43 0
-434 -44 0
-435 -45 0
-445 -43 0
-446 -44 0
-447 -45 0
-472 -43 0
-473 -44 0
-474 -45 0
-484 -43 0
-485 -44 0
-486 -45 0
-202 -46 0
-203 -47 0
-204 -48 0
-400 -46 0
-401 -47 0
-402 -48 0
-493 -46 0
-494 -47 0
-495 -48 0
-223 -49 0
-224 -50 0
-225 -51 0
-289 -49 0
-290 -50 0
-291 -51 0
-373 -49 0
-374 -50 0
-375 -51 0
-469 -49 0
-470 -50 0
-471 -51 0
-514 -49 0
-515 -50 0
-516 -51 0
-109 -52 0
-110 -53 0
-111 -54 0
-121 -52 0
-122 -53 0
-123 -54 0
-304 -52 0
-305 -53 0
-306 -54 0
-307 -52 0
-308 -53 0
-309 -54 0
-73 -55 0
-74 -56 0
-75 -57 0
-247 -55 0
-248 -56 0
-249 -57 0
-277 -55 0
-278 -56 0
-279 -57 0
-469 -55 0
-470 -56 0
-471 -57 0
-85 -58 0
-86 -59 0
-87 -60 0
-124 -58 0
-125 -59 0
-126 -60 0
-364 -58 0
-365 -59 0
-366 -60 0
-406 -58 0
-407 -59 0
-408 -60 0
-445 -58 0
-446 -59 0
-447 -60 0
-511 -58 0
-512 -59 0
-513 -60 0
-595 -58 0
-596 -59 0
-597 -60 0
-292 -61 0
-293 -62 0
-294 -63 0
-325 -61 0
-326 -62 0
-327 -63 0
-343 -61 0
-344 -62 0
-345 -63 0
-274 -64 0
-275 -65 0
-276 -66 0
-70 -67 0
-71 -68 0
-72 -69 0
-154 -67 0
-155 -68 0
-156 -69 0
-247 -67 0
-248 -68 0
-249 -69 0
-265 -67 0
-266 -68 0
-267 -69 0
-319 -67 0
-320 -68 0
-321 -69 0
-460 -67 0
-461 -68 0
-462 -69 0
-337 -70 0
-338 -71 0
-339 -72 0
-379 -70 0
-380 -71 0
-381 -72 0
-409 -70 0
-410 -71 0
-411 -72 0
-574 -70 0
-575 -71 0
-576 -72 0
-82 -73 0
-83 -74 0
-84 -75 0
-157 -73 0
-158 -74 0
-159 -75 0
-187 -73 0
-188 -74 0
-189 -75 0
-487 -73 0
-488 -74 0
-489 -75 0
-193 -76 0
-194 -77 0
-195 -78 0
-214 -76 0
-215 -77 0
-216 -78 0
-391 -76 0
-392 -77 0
-393 -78 0
-460 -76 0
-461 -77 0
-462 -78 0
-484 -76 0
-485 -77 0
-486 -78 0
-106 -79 0
-107 -80 0
-108 -81 0
-157 -79 0
-158 -80 0
-159 -81 0
-577 -79 0
-578 -80 0
-579 -81 0
-163 -82 0
-164 -83 0
-165 -84 0
-283 -82 0
-284 -83 0
-285 -84 0
-553 -82 0
-554 -83 0
-555 -84 0
-136 -85 0
-137 -86 0
-138 -87 0
-184 -85 0
-185 -86 0
-186 -87 0
-277 -85 0
-278 -86 0
-279 -87 0
-286 -85 0
-287 -86 0
-288 -87 0
-103 -88 0
-104 -89 0
-105 -90 0
-154 -88 0
-155 -89 0
-156 -90 0
-208 -88 0
-209 -89 0
-210 -90 0
-541 -88 0
-542 -89 0
-543 -90 0
-196 -91 0
-197 -92 0
-198 -93 0
-373 -91 0
-374 -92 0
-375 -93 0
-487 -91 0
-488 -92 0
-489 -93 0
-535 -91 0
-536 -92 0
-537 -93 0
-145 -94 0
-146 -95 0
-147 -96 0
-565 -94 0
-566 -95 0
-567 -96 0
-181 -97 0
-182 -98 0
-183 -99 0
-319 -97 0
-320 -98 0
-321 -99 0
-337 -97 0
-338 -98 0
-339 -99 0
-355 -97 0
-356 -98 0
-357 -99 0
-406 -97 0
-407 -98 0
-408 -99 0
-424 -97 0
-425 -98 0
-426 -99 0
-481 -97 0
-482 -98 0
-483 -99 0
-121 -100 0
-122 -101 0
-123 -102 0
-271 -100 0
-272 -101 0
-273 -102 0
-277 -100 0
-278 -101 0
-279 -102 0
-280 -100 0
-281 -101 0
-282 -102 0
-430 -100 0
-431 -101 0
-432 -102 0
-565 -100 0
-566 -101 0
-567 -102 0
-253 -103 0
-254 -104 0
-255 -105 0
-316 -103 0
-317 -104 0
-318 -105 0
-319 -103 0
-320 -104 0
-321 -105 0
-466 -103 0
-467 -104 0
-468 -105 0
-514 -103 0
-515 -104 0
-516 -105 0
-163 -106 0
-164 -107 0
-165 -108 0
-190 -106 0
-191 -107 0
-192 -108 0
-340 -106 0
-341 -107 0
-342 -108 0
-415 -106 0
-416 -107 0
-417 -108 0
-163 -109 0
-164 -110 0
-165 -111 0
-226 -109 0
-227 -110 0
-228 -111 0
-337 -109 0
-338 -110 0
-339 -111 0
-343 -109 0
-344 -110 0
-345 -111 0
-115 -112 0
-116 -113 0
-117 -114 0
-145 -112 0
-146 -113 0
-147 -114 0
-292 -112 0
-293 -113 0
-294 -114 0
-295 -112 0
-296 -113 0
-297 -114 0
-331 -112 0
-332 -113 0
-333 -114 0
-340 -112 0
-341 -113 0
-342 -114 0
-391 -112 0
-392 -113 0
-393 -114 0
-418 -112 0
-419 -113 0
-420 -114 0
-400 -115 0
-401 -116 0
-402 -117 0
-406 -115 0
-407 -116 0
-408 -117 0
-430 -115 0
-431 -116 0
-432 -117 0
-574 -115 0
-575 -116 0
-576 -117 0
-376 -118 0
-377 -119 0
-378 -120 0
-442 -118 0
-443 -119 0
-444 -120 0
-490 -118 0
-491 -119 0
-492 -120 0
-163 -121 0
-164 -122 0
-165 -123 0
-310 -121 0
-311 -122 0
-312 -123 0
-361 -121 0
-362 -122 0
-363 -123 0
-427 -121 0
-428 -122 0
-429 -123 0
-139 -124 0
-140 -125 0
-141 -126 0
-157 -124 0
-158 -125 0
-159 -126 0
-223 -124 0
-224 -125 0
-225 -126 0
-403 -124 0
-404 -125 0
-405 -126 0
-226 -127 0
-227 -128 0
-228 -129 0
-511 -127 0
-512 -128 0
-513 -129 0
-526 -127 0
-527 -128 0
-528 -129 0
-580 -127 0
-581 -128 0
-582 -129 0
-586 -127 0
-587 -128 0
-588 -129 0
-232 -130 0
-233 -131 0
-234 -132 0
-334 -130 0
-335 -131 0
-336 -132 0
-337 -130 0
-338 -131 0
-339 -132 0
-457 -130 0
-458 -131 0
-459 -132 0
-586 -130 0
-587 -131 0
-588 -132 0
-595 -130 0
-596 -131 0
-597 -132 0
-358 -133 0
-359 -134 0
-360 -135 0
-370 -133 0
-371 -134 0
-372 -135 0
-415 -133 0
-416 -134 0
-417 -135 0
-526 -133 0
-527 -134 0
-528 -135 0
-586 -133 0
-587 -134 0
-588 -135 0
-595 -133 0
-596 -134 0
-597 -135 0
-169 -136 0
-170 -137 0
-171 -138 0
-223 -136 0
-224 -137 0
-225 -138 0
-565 -136 0
-566 -137 0
-567 -138 0
-457 -139 0
-458 -140 0
-459 -141 0
-475 -139 0
-476 -140 0
-477 -141 0
-520 -139 0
-521 -140 0
-522 -141 0
-274 -142 0
-275 -143 0
-276 -144 0
-379 -142 0
-380 -143 0
-381 -144 0
-580 -142 0
-581 -143 0
-582 -144 0
-214 -145 0
-215 -146 0
-216 -147 0
-232 -145 0
-233 -146 0
-234 -147 0
-442 -145 0
-443 -146 0
-444 -147 0
-502 -145 0
-503 -146 0
-504 -147 0
-289 -148 0
-290 -149 0
-291 -150 0
-430 -148 0
-431 -149 0
-432 -150 0
-592 -148 0
-593 -149 0
-594 -150 0
-205 -151 0
-206 -152 0
-207 -153 0
-178 -154 0
-179 -155 0
-180 -156 0
-361 -154 0
-362 -155 0
-363 -156 0
-193 -157 0
-194 -158 0
-195 -159 0
-265 -157 0
-266 -158 0
-267 -159 0
-349 -157 0
-350 -158 0
-351 -159 0
-466 -157 0
-467 -158 0
-468 -159 0
-334 -160 0
-335 -161 0
-336 -162 0
-388 -160 0
-389 -161 0
-390 -162 0
-460 -160 0
-461 -161 0
-462 -162 0
-511 -160 0
-512 -161 0
-513 -162 0
-220 -163 0
-221 -164 0
-222 -165 0
-313 -163 0
-314 -164 0
-315 -165 0
-232 -166 0
-233 -167 0
-234 -168 0
-322 -166 0
-323 -167 0
-324 -168 0
-487 -166 0
-488 -167 0
-489 -168 0
-493 -166 0
-494 -167 0
-495 -168 0
-559 -166 0
-560 -167 0
-561 -168 0
-178 -169 0
-179 -170 0
-180 -171 0
-235 -169 0
-236 -170 0
-237 -171 0
-406 -169 0
-407 -170 0
-408 -171 0
-469 -169 0
-470 -170 0
-471 -171 0
-295 -172 0
-296 -173 0
-297 -174 0
-586 -172 0
-587 -173 0
-588 -174 0
-178 -175 0
-179 -176 0
-180 -177 0
-307 -175 0
-308 -176 0
-309 -177 0
-433 -175 0
-434 -176 0
-435 -177 0
-568 -175 0
-569 -176 0
-570 -177 0
-238 -178 0
-239 -179 0
-240 -180 0
-190 -181 0
-191 -182 0
-192 -183 0
-379 -181 0
-380 -182 0
-381 -183 0
-418 -181 0
-419 -182 0
-420 -183 0
-247 -184 0
-248 -185 0
-249 -186 0
-496 -184 0
-497 -185 0
-498 -186 0
-499 -184 0
-500 -185 0
-501 -186 0
-313 -190 0
-314 -191 0
-315 -192 0
-349 -190 0
-350 -191 0
-351 -192 0
-433 -190 0
-434 -191 0
-435 -192 0
-490 -190 0
-491 -191 0
-492 -192 0
-526 -190 0
-527 -191 0
-528 -192 0
-571 -190 0
-572 -191 0
-573 -192 0
-256 -193 0
-257 -194 0
-258 -195 0
-283 -193 0
-284 -194 0
-285 -195 0
-418 -193 0
-419 -194 0
-420 -195 0
-463 -193 0
-464 -194 0
-465 -195 0
-514 -193 0
-515 -194 0
-516 -195 0
-592 -193 0
-593 -194 0
-594 -195 0
-223 -196 0
-224 -197 0
-225 -198 0
-400 -196 0
-401 -197 0
-402 -198 0
-496 -196 0
-497 -197 0
-498 -198 0
-547 -196 0
-548 -197 0
-549 -198 0
-553 -196 0
-554 -197 0
-555 -198 0
-235 -199 0
-236 -200 0
-237 -201 0
-241 -199 0
-242 -200 0
-243 -201 0
-361 -199 0
-362 -200 0
-363 -201 0
-415 -199 0
-416 -200 0
-417 -201 0
-523 -199 0
-524 -200 0
-525 -201 0
-238 -202 0
-239 -203 0
-240 -204 0
-523 -202 0
-524 -203 0
-525 -204 0
-571 -202 0
-572 -203 0
-573 -204 0
-235 -205 0
-236 -206 0
-237 -207 0
-328 -205 0
-329 -206 0
-330 -207 0
-484 -205 0
-485 -206 0
-486 -207 0
-556 -205 0
-557 -206 0
-558 -207 0
-409 -208 0
-410 -209 0
-411 -210 0
-583 -208 0
-584 -209 0
-585 -210 0
-346 -214 0
-347 -215 0
-348 -216 0
-406 -214 0
-407 -215 0
-408 -216 0
-487 -214 0
-488 -215 0
-489 -216 0
-535 -214 0
-536 -215 0
-537 -216 0
-244 -217 0
-245 -218 0
-246 -219 0
-328 -217 0
-329 -218 0
-330 -219 0
-577 -217 0
-578 -218 0
-579 -219 0
-499 -220 0
-500 -221 0
-501 -222 0
-331 -223 0
-332 -224 0
-333 -225 0
-262 -226 0
-263 -227 0
-264 -228 0
-349 -226 0
-350 -227 0
-351 -228 0
-373 -226 0
-374 -227 0
-375 -228 0
-502 -226 0
-503 -227 0
-504 -228 0
-520 -226 0
-521 -227 0
-522 -228 0
-595 -226 0
-596 -227 0
-597 -228 0
-433 -229 0
-434 -230 0
-435 -231 0
-259 -232 0
-260 -233 0
-261 -234 0
-238 -235 0
-239 -236 0
-240 -237 0
-373 -235 0
-374 -236 0
-375 -237 0
-529 -235 0
-530 -236 0
-531 -237 0
-403 -238 0
-404 -239 0
-405 -240 0
-490 -238 0
-491 -239 0
-492 -240 0
-514 -241 0
-515 -242 0
-516 -243 0
-520 -241 0
-521 -242 0
-522 -243 0
-535 -241 0
-536 -242 0
-537 -243 0
-409 -247 0
-410 -248 0
-411 -249 0
-559 -247 0
-560 -248 0
-561 -249 0
-256 -250 0
-257 -251 0
-258 -252 0
-271 -250 0
-272 -251 0
-273 -252 0
-349 -250 0
-350 -251 0
-351 -252 0
-583 -250 0
-584 -251 0
-585 -252 0
-457 -253 0
-458 -254 0
-459 -255 0
-490 -253 0
-491 -254 0
-492 -255 0
-298 -256 0
-299 -257 0
-300 -258 0
-316 -256 0
-317 -257 0
-318 -258 0
-496 -256 0
-497 -257 0
-498 -258 0
-598 -256 0
-599 -257 0
-600 -258 0
-313 -259 0
-314 -260 0
-315 -261 0
-343 -259 0
-344 -260 0
-345 -261 0
-418 -259 0
-419 -260 0
-420 -261 0
-463 -259 0
-464 -260 0
-465 -261 0
-544 -259 0
-545 -260 0
-546 -261 0
-556 -259 0
-557 -260 0
-558 -261 0
-286 -265 0
-287 -266 0
-288 -267 0
-310 -265 0
-311 -266 0
-312 -267 0
-340 -265 0
-341 -266 0
-342 -267 0
-442 -265 0
-443 -266 0
-444 -267 0
-445 -265 0
-446 -266 0
-447 -267 0
-520 -265 0
-521 -266 0
-522 -267 0
-565 -268 0
-566 -269 0
-567 -270 0
-280 -271 0
-281 -272 0
-282 -273 0
-328 -271 0
-329 -272 0
-330 -273 0
-556 -271 0
-557 -272 0
-558 -273 0
-547 -274 0
-548 -275 0
-549 -276 0
-358 -277 0
-359 -278 0
-360 -279 0
-559 -277 0
-560 -278 0
-561 -279 0
-451 -280 0
-452 -281 0
-453 -282 0
-541 -280 0
-542 -281 0
-543 -282 0
-577 -280 0
-578 -281 0
-579 -282 0
-436 -283 0
-437 -284 0
-438 -285 0
-493 -283 0
-494 -284 0
-495 -285 0
-544 -283 0
-545 -284 0
-546 -285 0
-523 -286 0
-524 -287 0
-525 -288 0
-547 -286 0
-548 -287 0
-549 -288 0
-364 -292 0
-365 -293 0
-366 -294 0
-520 -292 0
-521 -293 0
-522 -294 0
-475 -295 0
-476 -296 0
-477 -297 0
-565 -298 0
-566 -299 0
-567 -300 0
-328 -301 0
-329 -302 0
-330 -303 0
-517 -301 0
-518 -302 0
-519 -303 0
-583 -301 0
-584 -302 0
-585 -303 0
-379 -304 0
-380 -305 0
-381 -306 0
-394 -304 0
-395 -305 0
-396 -306 0
-499 -304 0
-500 -305 0
-501 -306 0
-334 -307 0
-335 -308 0
-336 -309 0
-400 -307 0
-401 -308 0
-402 -309 0
-442 -307 0
-443 -308 0
-444 -309 0
-514 -307 0
-515 -308 0
-516 -309 0
-571 -313 0
-572 -314 0
-573 -315 0
-322 -316 0
-323 -317 0
-324 -318 0
-379 -316 0
-380 -317 0
-381 -318 0
-400 -316 0
-401 -317 0
-402 -318 0
-466 -319 0
-467 -320 0
-468 -321 0
-577 -319 0
-578 -320 0
-579 -321 0
-403 -322 0
-404 -323 0
-405 -324 0
-442 -322 0
-443 -323 0
-444 -324 0
-445 -322 0
-446 -323 0
-447 -324 0
-445 -325 0
-446 -326 0
-447 -327 0
-484 -325 0
-485 -326 0
-486 -327 0
-508 -325 0
-509 -326 0
-510 -327 0
-580 -325 0
-581 -326 0
-582 -327 0
-349 -328 0
-350 -329 0
-351 -330 0
-481 -331 0
-482 -332 0
-483 -333 0
-583 -331 0
-584 -332 0
-585 -333 0
-505 -334 0
-506 -335 0
-507 -336 0
-352 -337 0
-353 -338 0
-354 -339 0
-355 -337 0
-356 -338 0
-357 -339 0
-370 -337 0
-371 -338 0
-372 -339 0
-373 -337 0
-374 -338 0
-375 -339 0
-421 -340 0
-422 -341 0
-423 -342 0
-487 -343 0
-488 -344 0
-489 -345 0
-577 -346 0
-578 -347 0
-579 -348 0
-439 -349 0
-440 -350 0
-441 -351 0
-490 -349 0
-491 -350 0
-492 -351 0
-391 -352 0
-392 -353 0
-393 -354 0
-412 -352 0
-413 -353 0
-414 -354 0
-424 -352 0
-425 -353 0
-426 -354 0
-481 -355 0
-482 -356 0
-483 -357 0
-490 -355 0
-491 -356 0
-492 -357 0
-496 -355 0
-497 -356 0
-498 -357 0
-481 -358 0
-482 -359 0
-483 -360 0
-550 -358 0
-551 -359 0
-552 -360 0
-475 -364 0
-476 -365 0
-477 -366 0
-547 -364 0
-548 -365 0
-549 -366 0
-385 -367 0
-386 -368 0
-387 -369 0
-409 -367 0
-410 -368 0
-411 -369 0
-463 -367 0
-464 -368 0
-465 -369 0
-520 -367 0
-521 -368 0
-522 -369 0
-541 -370 0
-542 -371 0
-543 -372 0
-589 -370 0
-590 -371 0
-591 -372 0
-469 -373 0
-470 -374 0
-471 -375 0
-598 -373 0
-599 -374 0
-600 -375 0
-496 -376 0
-497 -377 0
-498 -378 0
-502 -376 0
-503 -377 0
-504 -378 0
-457 -379 0
-458 -380 0
-459 -381 0
-415 -382 0
-416 -383 0
-417 -384 0
-469 -382 0
-470 -383 0
-471 -384 0
-538 -382 0
-539 -383 0
-540 -384 0
-403 -385 0
-404 -386 0
-405 -387 0
-586 -385 0
-587 -386 0
-588 -387 0
-409 -388 0
-410 -389 0
-411 -390 0
-481 -388 0
-482 -389 0
-483 -390 0
-430 -391 0
-431 -392 0
-432 -393 0
-469 -391 0
-470 -392 0
-471 -393 0
-511 -391 0
-512 -392 0
-513 -393 0
-559 -391 0
-560 -392 0
-561 -393 0
-460 -394 0
-461 -395 0
-462 -396 0
-532 -394 0
-533 -395 0
-534 -396 0
-529 -397 0
-530 -398 0
-531 -399 0
-580 -397 0
-581 -398 0
-582 -399 0
-583 -397 0
-584 -398 0
-585 -399 0
-439 -400 0
-440 -401 0
-441 -402 0
-496 -400 0
-497 -401 0
-498 -402 0
-508 -400 0
-509 -401 0
-510 -402 0
-580 -403 0
-581 -404 0
-582 -405 0
-469 -409 0
-470 -410 0
-471 -411 0
-562 -409 0
-563 -410 0
-564 -411 0
-586 -409 0
-587 -410 0
-588 -411 0
-571 -412 0
-572 -413 0
-573 -414 0
-484 -418 0
-485 -419 0
-486 -420 0
-430 -421 0
-431 -422 0
-432 -423 0
-532 -421 0
-533 -422 0
-534 -423 0
-553 -421 0
-554 -422 0
-555 -423 0
-559 -421 0
-560 -422 0
-561 -423 0
-598 -421 0
-599 -422 0
-600 -423 0
-487 -424 0
-488 -425 0
-489 -426 0
-538 -424 0
-539 -425 0
-540 -426 0
-448 -427 0
-449 -428 0
-450 -429 0
-583 -430 0
-584 -431 0
-585 -432 0
-442 -433 0
-443 -434 0
-444 -435 0
-451 -433 0
-452 -434 0
-453 -435 0
-532 -433 0
-533 -434 0
-534 -435 0
-571 -439 0
-572 -440 0
-573 -441 0
-598 -439 0
-599 -440 0
-600 -441 0
-493 -442 0
-494 -443 0
-495 -444 0
-514 -445 0
-515 -446 0
-516 -447 0
-529 -445 0
-530 -446 0
-531 -447 0
-499 -448 0
-500 -449 0
-501 -450 0
-550 -448 0
-551 -449 0
-552 -450 0
-463 -454 0
-464 -455 0
-465 -456 0
-466 -454 0
-467 -455 0
-468 -456 0
-520 -457 0
-521 -458 0
-522 -459 0
-505 -460 0
-506 -461 0
-507 -462 0
-487 -463 0
-488 -464 0
-489 -465 0
-475 -466 0
-476 -467 0
-477 -468 0
-553 -466 0
-554 -467 0
-555 -468 0
-544 -472 0
-545 -473 0
-546 -474 0
-556 -472 0
-557 -473 0
-558 -474 0
-598 -472 0
-599 -473 0
-600 -474 0
-580 -478 0
-581 -479 0
-582 -480 0
-544 -481 0
-545 -482 0
-546 -483 0
-532 -484 0
-533 -485 0
-534 -486 0
-502 -493 0
-503 -494 0
-504 -495 0
-565 -493 0
-566 -494 0
-567 -495 0
-562 -499 0
-563 -500 0
-564 -501 0
-517 -502 0
-518 -503 0
-519 -504 0
-523 -505 0
-524 -506 0
-525 -507 0
-568 -505 0
-569 -506 0
-570 -507 0
-523 -508 0
-524 -509 0
-525 -510 0
-589 -508 0
-590 -509 0
-591 -510 0
-526 -520 0
-527 -521 0
-528 -522 0
-541 -535 0
-542 -536 0
-543 -537 0
-544 -541 0
-545 -542 0
-546 -543 0
-553 -541 0
-554 -542 0
-555 -543 0
-562 -547 0
-563 -548 0
-564 -549 0
-577 -556 0
-578 -557 0
-579 -558 0
-562 -559 0
-563 -560 0
-564 -561 0
-595 -571 0
-596 -572 0
-597 -573 0
-583 -577 0
-584 -578 0
-585 -579 0
-595 -580 0
-596 -581 0
-597 -582 0
